param set_len = 22;
param target_sum = 560726529;
param values := [0] 131600299 [1] 49500646 [2] 44604090 [3] 104783068 [4] 5547536 [5] 28415090 [6] 54934687 [7] 52222042 [8] 98599542 [9] 21298392 [10] 55753358 [11] 105604949 [12] 25119914 [13] 70002882 [14] 23295137 [15] 106701653 [16] 26706452 [17] 75896039 [18] 40923083 [19] 103035680 [20] 103015454 [21] 22390629 ;
